(declare-fun b68 () (_ FloatingPoint 11 53))
(declare-fun b58 () (_ FloatingPoint 11 53))
(declare-fun b54 () (_ FloatingPoint 11 53))
(declare-fun b71 () (_ FloatingPoint 11 53))
(declare-fun b61 () (_ FloatingPoint 11 53))
(declare-fun b28 () (_ FloatingPoint 11 53))
(declare-fun b20 () (_ FloatingPoint 11 53))
(declare-fun b51 () (_ FloatingPoint 11 53))
(declare-fun b24 () (_ FloatingPoint 11 53))
(declare-fun b14 () (_ FloatingPoint 11 53))
(declare-fun b32 () (_ FloatingPoint 11 53))
(declare-fun b16 () (_ FloatingPoint 11 53))
(declare-fun b13 () (_ FloatingPoint 11 53))
(assert (let ((.def_48 (fp.add RNE b13 b32)))
(let ((.def_49 (fp.lt b24 .def_48)))
(let ((.def_46 (fp.leq b13 b24)))
(let ((.def_40 (fp.add RNE b13 b14)))
(let ((.def_39 (fp.add RNE b14 b16)))
(let ((.def_41 (fp.mul RNE .def_39 .def_40)))
(let ((.def_43 (fp.lt b20 .def_41)))
(let ((.def_44 (not .def_43)))
(let ((.def_37 (fp.leq b32 b68)))
(let ((.def_34 (fp.leq b71 b32)))
(let ((.def_30 (fp.leq b16 b58)))
(let ((.def_28 (fp.leq b61 b16)))
(let ((.def_25 (fp.leq b14 b51)))
(let ((.def_22 (fp.leq b54 b14)))
(let ((.def_18 (fp.leq b13 b58)))
(let ((.def_16 (fp.leq b61 b13)))
(let ((.def_19 (and .def_16 .def_18)))
(let ((.def_23 (and .def_19 .def_22)))
(let ((.def_26 (and .def_23 .def_25)))
(let ((.def_29 (and .def_26 .def_28)))
(let ((.def_31 (and .def_29 .def_30)))
(let ((.def_35 (and .def_31 .def_34)))
(let ((.def_38 (and .def_35 .def_37)))
(let ((.def_45 (and .def_38 .def_44)))
(let ((.def_47 (and .def_45 .def_46)))
(let ((.def_50 (and .def_47 .def_49)))
(let ((.def_11 (fp.add RNE b13 b28)))
(let ((.def_13 (fp.lt b24 .def_11)))
(let ((.def_14 (not .def_13)))
(let ((.def_51 (and .def_14 .def_50)))
.def_51)))))))))))))))))))))))))))))))
(check-sat)
